p edge 378 702
p 1 28
p 1 37
p 1 40
p 1 55
p 1 136
p 1 145
p 1 148
p 1 163
p 1 172
p 1 181
p 1 184
p 1 199
p 1 352
p 2 29
p 2 43
p 2 46
p 2 58
p 2 151
p 2 154
p 2 166
p 2 187
p 2 190
p 2 202
p 2 208
p 2 244
p 2 355
p 3 30
p 3 49
p 3 52
p 3 61
p 3 157
p 3 160
p 3 169
p 3 193
p 3 196
p 3 205
p 3 280
p 3 316
p 3 358
p 4 31
p 4 44
p 4 50
p 4 56
p 4 139
p 4 175
p 4 223
p 4 229
p 4 235
p 4 259
p 4 265
p 4 271
p 4 361
p 5 32
p 5 38
p 5 53
p 5 59
p 5 211
p 5 217
p 5 232
p 5 238
p 5 247
p 5 253
p 5 268
p 5 274
p 5 364
p 6 33
p 6 41
p 6 47
p 6 62
p 6 220
p 6 226
p 6 241
p 6 256
p 6 262
p 6 277
p 6 283
p 6 319
p 6 367
p 7 34
p 7 48
p 7 54
p 7 57
p 7 142
p 7 178
p 7 298
p 7 304
p 7 307
p 7 334
p 7 340
p 7 343
p 7 370
p 8 35
p 8 42
p 8 51
p 8 60
p 8 214
p 8 250
p 8 292
p 8 301
p 8 310
p 8 328
p 8 337
p 8 346
p 8 373
p 9 36
p 9 39
p 9 45
p 9 63
p 9 286
p 9 289
p 9 295
p 9 313
p 9 322
p 9 325
p 9 331
p 9 349
p 9 376
p 10 64
p 10 73
p 10 76
p 10 91
p 10 209
p 10 218
p 10 221
p 10 236
p 10 281
p 10 290
p 10 293
p 10 308
p 10 353
p 11 65
p 11 79
p 11 82
p 11 94
p 11 137
p 11 224
p 11 227
p 11 239
p 11 296
p 11 299
p 11 311
p 11 317
p 11 356
p 12 66
p 12 85
p 12 88
p 12 97
p 12 173
p 12 230
p 12 233
p 12 242
p 12 245
p 12 302
p 12 305
p 12 314
p 12 359
p 13 67
p 13 80
p 13 86
p 13 92
p 13 152
p 13 158
p 13 164
p 13 212
p 13 284
p 13 332
p 13 338
p 13 344
p 13 362
p 14 68
p 14 74
p 14 89
p 14 95
p 14 140
p 14 146
p 14 161
p 14 167
p 14 320
p 14 326
p 14 341
p 14 347
p 14 365
p 15 69
p 15 77
p 15 83
p 15 98
p 15 149
p 15 155
p 15 170
p 15 176
p 15 248
p 15 329
p 15 335
p 15 350
p 15 368
p 16 70
p 16 84
p 16 90
p 16 93
p 16 191
p 16 197
p 16 200
p 16 215
p 16 263
p 16 269
p 16 272
p 16 287
p 16 371
p 17 71
p 17 78
p 17 87
p 17 96
p 17 143
p 17 185
p 17 194
p 17 203
p 17 257
p 17 266
p 17 275
p 17 323
p 17 374
p 18 72
p 18 75
p 18 81
p 18 99
p 18 179
p 18 182
p 18 188
p 18 206
p 18 251
p 18 254
p 18 260
p 18 278
p 18 377
p 19 100
p 19 109
p 19 112
p 19 127
p 19 246
p 19 255
p 19 258
p 19 273
p 19 318
p 19 327
p 19 330
p 19 345
p 19 354
p 20 101
p 20 115
p 20 118
p 20 130
p 20 174
p 20 261
p 20 264
p 20 276
p 20 282
p 20 333
p 20 336
p 20 348
p 20 357
p 21 102
p 21 121
p 21 124
p 21 133
p 21 138
p 21 210
p 21 267
p 21 270
p 21 279
p 21 339
p 21 342
p 21 351
p 21 360
p 22 103
p 22 116
p 22 122
p 22 128
p 22 189
p 22 195
p 22 201
p 22 249
p 22 297
p 22 303
p 22 309
p 22 321
p 22 363
p 23 104
p 23 110
p 23 125
p 23 131
p 23 177
p 23 183
p 23 198
p 23 204
p 23 285
p 23 291
p 23 306
p 23 312
p 23 366
p 24 105
p 24 113
p 24 119
p 24 134
p 24 141
p 24 186
p 24 192
p 24 207
p 24 213
p 24 294
p 24 300
p 24 315
p 24 369
p 25 106
p 25 120
p 25 126
p 25 129
p 25 156
p 25 162
p 25 165
p 25 228
p 25 234
p 25 237
p 25 252
p 25 324
p 25 372
p 26 107
p 26 114
p 26 123
p 26 132
p 26 150
p 26 159
p 26 168
p 26 180
p 26 222
p 26 231
p 26 240
p 26 288
p 26 375
p 27 108
p 27 111
p 27 117
p 27 135
p 27 144
p 27 147
p 27 153
p 27 171
p 27 216
p 27 219
p 27 225
p 27 243
p 27 378
p 28 29
p 28 30
p 29 30
p 31 32
p 31 33
p 32 33
p 34 35
p 34 36
p 35 36
p 37 38
p 37 39
p 38 39
p 40 41
p 40 42
p 41 42
p 43 44
p 43 45
p 44 45
p 46 47
p 46 48
p 47 48
p 49 50
p 49 51
p 50 51
p 52 53
p 52 54
p 53 54
p 55 56
p 55 57
p 56 57
p 58 59
p 58 60
p 59 60
p 61 62
p 61 63
p 62 63
p 64 65
p 64 66
p 65 66
p 67 68
p 67 69
p 68 69
p 70 71
p 70 72
p 71 72
p 73 74
p 73 75
p 74 75
p 76 77
p 76 78
p 77 78
p 79 80
p 79 81
p 80 81
p 82 83
p 82 84
p 83 84
p 85 86
p 85 87
p 86 87
p 88 89
p 88 90
p 89 90
p 91 92
p 91 93
p 92 93
p 94 95
p 94 96
p 95 96
p 97 98
p 97 99
p 98 99
p 100 101
p 100 102
p 101 102
p 103 104
p 103 105
p 104 105
p 106 107
p 106 108
p 107 108
p 109 110
p 109 111
p 110 111
p 112 113
p 112 114
p 113 114
p 115 116
p 115 117
p 116 117
p 118 119
p 118 120
p 119 120
p 121 122
p 121 123
p 122 123
p 124 125
p 124 126
p 125 126
p 127 128
p 127 129
p 128 129
p 130 131
p 130 132
p 131 132
p 133 134
p 133 135
p 134 135
p 136 137
p 136 138
p 137 138
p 139 140
p 139 141
p 140 141
p 142 143
p 142 144
p 143 144
p 145 146
p 145 147
p 146 147
p 148 149
p 148 150
p 149 150
p 151 152
p 151 153
p 152 153
p 154 155
p 154 156
p 155 156
p 157 158
p 157 159
p 158 159
p 160 161
p 160 162
p 161 162
p 163 164
p 163 165
p 164 165
p 166 167
p 166 168
p 167 168
p 169 170
p 169 171
p 170 171
p 172 173
p 172 174
p 173 174
p 175 176
p 175 177
p 176 177
p 178 179
p 178 180
p 179 180
p 181 182
p 181 183
p 182 183
p 184 185
p 184 186
p 185 186
p 187 188
p 187 189
p 188 189
p 190 191
p 190 192
p 191 192
p 193 194
p 193 195
p 194 195
p 196 197
p 196 198
p 197 198
p 199 200
p 199 201
p 200 201
p 202 203
p 202 204
p 203 204
p 205 206
p 205 207
p 206 207
p 208 209
p 208 210
p 209 210
p 211 212
p 211 213
p 212 213
p 214 215
p 214 216
p 215 216
p 217 218
p 217 219
p 218 219
p 220 221
p 220 222
p 221 222
p 223 224
p 223 225
p 224 225
p 226 227
p 226 228
p 227 228
p 229 230
p 229 231
p 230 231
p 232 233
p 232 234
p 233 234
p 235 236
p 235 237
p 236 237
p 238 239
p 238 240
p 239 240
p 241 242
p 241 243
p 242 243
p 244 245
p 244 246
p 245 246
p 247 248
p 247 249
p 248 249
p 250 251
p 250 252
p 251 252
p 253 254
p 253 255
p 254 255
p 256 257
p 256 258
p 257 258
p 259 260
p 259 261
p 260 261
p 262 263
p 262 264
p 263 264
p 265 266
p 265 267
p 266 267
p 268 269
p 268 270
p 269 270
p 271 272
p 271 273
p 272 273
p 274 275
p 274 276
p 275 276
p 277 278
p 277 279
p 278 279
p 280 281
p 280 282
p 281 282
p 283 284
p 283 285
p 284 285
p 286 287
p 286 288
p 287 288
p 289 290
p 289 291
p 290 291
p 292 293
p 292 294
p 293 294
p 295 296
p 295 297
p 296 297
p 298 299
p 298 300
p 299 300
p 301 302
p 301 303
p 302 303
p 304 305
p 304 306
p 305 306
p 307 308
p 307 309
p 308 309
p 310 311
p 310 312
p 311 312
p 313 314
p 313 315
p 314 315
p 316 317
p 316 318
p 317 318
p 319 320
p 319 321
p 320 321
p 322 323
p 322 324
p 323 324
p 325 326
p 325 327
p 326 327
p 328 329
p 328 330
p 329 330
p 331 332
p 331 333
p 332 333
p 334 335
p 334 336
p 335 336
p 337 338
p 337 339
p 338 339
p 340 341
p 340 342
p 341 342
p 343 344
p 343 345
p 344 345
p 346 347
p 346 348
p 347 348
p 349 350
p 349 351
p 350 351
p 352 353
p 352 354
p 353 354
p 355 356
p 355 357
p 356 357
p 358 359
p 358 360
p 359 360
p 361 362
p 361 363
p 362 363
p 364 365
p 364 366
p 365 366
p 367 368
p 367 369
p 368 369
p 370 371
p 370 372
p 371 372
p 373 374
p 373 375
p 374 375
p 376 377
p 376 378
p 377 378
